File : Instances/p70
Use 144 s

33716

0 0 0 0 0 1 0 1 1 0 0 0 1 0 0 0 0 0 0 1 0 1 0 1 1 0 1 1 0 0 
7 19 21 27 21 12 21 27 27 27 26 19 23 5 19 7 23 8 27 27 27 21 5 24 23 27 27 19 26 21 19 19 26 21 27 12 8 8 24 21 7 8 12 26 8 26 8 21 19 26 24 24 21 21 8 12 7 8 7 7 26 24 7 8 8 12 5 19 19 12 7 12 19 8 5 23 8 5 8 24 23 5 26 7 26 23 19 5 27 7 27 19 7 7 5 8 27 12 5 19 19 21 12 7 26 24 26 24 27 8 19 26 27 12 12 8 27 7 19 8 26 7 27 19 26 21 21 12 26 5 27 24 12 8 5 26 8 8 19 23 12 27 12 12 7 5 24 21 27 7 24 5 23 24 8 27 5 21 8 8 23 27 23 24 5 27 5 26 8 21 5 8 19 8 26 21 24 8 26 23 5 21 21 19 12 8 12 23 24 21 21 21 19 19 7 12 7 21 23 19 
